%%% static parameters %%%
timespan = 1;
Clients_N = [500];
Demand_W = [15];
Lt0 = [4];
Lt1 = [4];
SS_ = [0.85];
DS_D = [20];
K = [200];
MA = [500];
HC = [0.05];
%%% dynamic parameters %%%
lost_ratio_sales_ret_th = 7.175053491458139e-05;
lost_ratio_sales_ret_w = 61;
lost_ratio_sales_dis_th = 0.000124637262914427;
lost_ratio_sales_dis_w = 70;
lost_ratio_sales_fac_th = 2.789577856621206e-05;
lost_ratio_sales_fac_w = 41;
stock_customer_MA_mean_relative_th = 0.10866801348541955;
stock_customer_MA_mean_relative_w = 12;
stock_distributor_MA_mean_relative_th = 0.7227749187544983;
stock_distributor_MA_mean_relative_w = 96;
stock_retailer_MA_mean_relative_th = 0.06472065817505701;
stock_retailer_MA_mean_relative_w = 43;
stock_factory_MA_mean_relative_th = 0.12172109896528616;
stock_factory_MA_mean_relative_w = 12;
